14
10
3 2 4
1 13 2 8 12 6 4 11 0 10 9
3 1 9 6 11 7 0 13 10 5 8 4 12 2
3 9 4 8 13 6 1 11 0 12 10 5 2
3 6 2
1 10 11 9 2 3 13 7 4 5 0 8 6 12
0 9 1 4 11 6 13 7 2 5 10
13 11 12 9 4 0
6 0 1 3 4 9 7 2 12 8
1 10 6 0 13
